50
6531

218 766
385 436
38 569
28 253
580 980
112 49
636 878
908 298
765 666
266 986
732 14
849 321
232 90
678 894
155 940
54 429
625 881
404 303
310 621
185 14
969 221
848 394
450 781
816 209
189 563
274 364
961 44
743 960
230 884
398 266
726 620
244 577
257 738
210 861
392 276
551 458
932 575
537 651
888 917
443 225
841 704
842 716
172 535
720 624
667 568
243 372
341 243
805 936
6 857
95 893
